certificates/rado_a9_c141_N18.drat
-16 6 -18 0
-17 -18 0
16 -18 0
-18 0
-16 17 0
17 0
-5 0
16 0
-4 0
-13 0
-14 0
3 0
-6 0
-15 0
9 0
12 0
10 0
7 0
11 0
8 0
0
